c ---- [ banner ] ------------------------------------------------------------
c
c Kissat SAT Solver
c 
c Copyright (c) 2021-2022 Armin Biere University of Freiburg
c Copyright (c) 2019-2021 Armin Biere Johannes Kepler University Linz
c 
c Version 3.0.0 04691ecb8fb57fb02e95ce19153764a501e72c8b
c gcc (Ubuntu 11.4.0-1ubuntu1~22.04) 11.4.0 -W -Wall -O3 -DNDEBUG
c Mon Jun 10 16:18:23 JST 2024 Linux shrike 5.15.0-102-generic x86_64
c
c ---- [ parsing ] -----------------------------------------------------------
c
c opened and reading DIMACS file:
c
c   /home/matsuse/SAT_instance/langford/test_for_sbatch2/langford_27.cnf
c
c parsed 'p cnf 1053 61859' header
c closing input after reading 745931 bytes (728 KB)
c finished parsing after 0.01 seconds
c
c ---- [ options ] -----------------------------------------------------------
c
c --statistics=true                (different from default 'false')
c
c ---- [ solving ] -----------------------------------------------------------
c
c  seconds switched rate      trail     variables
c         MB reductions conflicts glue       remaining
c          level restarts redundant irredundant
c
c *  0.01  3 0 0 0  0 0   0   0 0% 0 61859 1053 100%
c {  0.01  3 0 0 0  0 0   0   0 0% 0 61859 1053 100%
c }  0.01  3 19 0 0  0 2  22  22 99% 18 61859 1053 100%
c 1  0.01  3 19 0 0  0 2  22  22 99% 18 61859 1053 100%
c
c ---- [ result ] ------------------------------------------------------------
c
s SATISFIABLE
c
c ---- [ profiling ] ---------------------------------------------------------
c
c           0.01   93.36 %  parse
c           0.00    5.38 %  search
c           0.00    4.56 %  focused
c           0.00    0.00 %  simplify
c =============================================
c           0.01  100.00 %  total
c
c ---- [ statistics ] --------------------------------------------------------
c
c backbone_computations:                    0                0.00 interval
c backbone_ticks:                           0 
c clauses_irredundant:                  61859 
c clauses_redundant:                       22 
c conflicts:                               22             1694.26 per second
c decisions:                               54                2.45 per conflict
c eliminated:                               0                0 %  variables
c eliminations:                             0                0    interval
c eliminate_resolutions:                    0                0.00 per second
c forward_checks:                           0 
c forward_steps:                            0                0    per check
c kitten_propagations:                      0                0.00 per solved
c kitten_solved:                            0 
c kitten_ticks:                             0                0.00 per prop
c probings:                                 0                0    interval
c probing_ticks:                            0 
c propagations:                          1536           118290    per second
c reductions:                               0                0    interval
c rephased:                                 0                0    interval
c restarts:                                 0                0.00 interval
c searches:                                 1               22    interval
c search_ticks:                          5428 
c strengthened:                             0                0 %  checks
c substituted:                              0                0 %  variables
c substitute_ticks:                         0 
c subsumption_checks:                       0 
c subsumed:                                 0                0 %  checks
c sweep:                                    0                0    interval
c sweep_completed:                          0                0    sweeps
c sweep_equivalences:                       0                0 %  variables
c sweep_solved:                             0                0 %  kitten_solved
c sweep_units:                              0                0 %  variables
c sweep_variables:                          0                0 %  variables
c switched_modes:                           0                0    interval
c units:                                    0                0 %  variables
c variables_activated:                   1053                1.00 per variable
c variables_added:                       1053                1.00 per variable
c variables_removed:                     1053                1.00 variables
c vivifications:                            0                0    interval
c vivified:                                 0                0 %  checks
c vivify_checks:                            0                0    per vivify
c walk_improved:                            0                0 %  walks
c walks:                                    0                0    interval
c walk_steps:                               0 
c warmups:                                  0                0 %  walks
c
c ---- [ resources ] ---------------------------------------------------------
c
c maximum-resident-set-size:         10018816 bytes         10 MB
c process-time:                                          0.011739 seconds
c
c ---- [ shutting down ] -----------------------------------------------------
c
c exit 10
